1 1 1 0 1 0 0 1 1 0 1 0 0 
0 14 39 36 40 24 24 27 29 24 35 35 35 
14 0 31 38 14 32 7 7 9 38 35 14 32 
39 31 0 16 33 26 39 17 19 12 24 17 7 
36 38 16 0 17 27 10 34 16 34 11 34 10 
40 14 33 17 0 5 39 28 6 5 38 30 26 
24 32 26 27 5 0 19 28 25 10 24 11 11 
24 7 39 10 39 19 0 25 34 23 37 18 15 
27 7 17 34 28 28 25 0 15 40 31 36 31 
29 9 19 16 6 25 34 15 0 9 11 9 21 
24 38 12 34 5 10 23 40 9 0 6 35 15 
35 35 24 11 38 24 37 31 11 6 0 14 10 
35 14 17 34 30 11 18 36 9 35 14 0 25 
35 32 7 10 26 11 15 31 21 15 10 25 0 
2 3
1P 7B 4B 3P 13B 11P 10B 5P 6B 12B 9P 8P 2P = 139